\Problem name: 

Minimize
obj: x0 + x1 + x2 + x3 + x4 + x5
Subject To
cons0:  x0 + x1 + x2 >= 1
cons1:  x3 + x4 + x5 >= 1
Bounds
 0 <= x0 <= 1
 0 <= x1 <= 1
 0 <= x2 <= 1
 0 <= x3 <= 1
 0 <= x4 <= 1
 0 <= x5 <= 1 
Integers
x0 x1 x2 x3 x4 x5
End